20
0 1 0.7 0.37
0 2 0.4 0.4
0 3 0.43 0.23
0 4 0.44 0.36
0 5 0.59 0.36
0 6 0.08 0.08
0 7 0.46 0.46
0 8 0.23 0.23
0 9 0.72 0.47
0 10 0.46 0.39
0 11 0.45 0.45
0 12 0.46 0.46
0 13 0.37 0.37
0 14 0.58 0.58
0 15 0.36 0.36
0 16 0.46 0.46
0 17 0.5 0.36
0 18 0.24 0.24
0 19 0.74 0.35
1 2 0.65 0.31
1 3 0.2 0.2
1 4 0.26 0.26
1 5 0.19 0.18
1 6 0.76 0.29
1 7 0.32 0.32
1 8 0.44 0.14
1 9 0.16 0.16
1 10 0.28 0.28
1 11 0.58 0.08
1 12 0.11 0.11
1 13 0.28 0.28
1 14 0.7 0.4
1 15 0.26 0.26
1 16 0.28 0.28
1 17 0.25 0.25
1 18 0.43 0.43
1 19 0.6 0.08
2 3 0.46 0.46
2 4 0.86 0.16
2 5 0.24 0.24
2 6 0.58 0.32
2 7 0.76 0.16
2 8 0.17 0.17
2 9 0.77 0.32
2 10 0.54 0.26
2 11 0.56 0.34
2 12 0.74 0.38
2 13 0.18 0.18
2 14 0.54 0.4
2 15 0.7 0.33
2 16 0.66 0.33
2 17 0.34 0.34
2 18 0.72 0.26
2 19 0.56 0.39
3 4 0.41 0.41
3 5 0.72 0.34
3 6 0.15 0.15
3 7 0.5 0.5
3 8 0.72 0.29
3 9 0.36 0.36
3 10 0.24 0.24
3 11 0.27 0.27
3 12 0.78 0.31
3 13 0.53 0.31
3 14 0.6 0.4
3 15 0.13 0.13
3 16 0.36 0.34
3 17 0.25 0.25
3 18 0.45 0.45
3 19 0.48 0.12
4 5 0.34 0.34
4 6 0.28 0.28
4 7 0.77 0.32
4 8 0.65 0.27
4 9 0.48 0.42
4 10 0.24 0.24
4 11 0.3 0.18
4 12 0.81 0.24
4 13 0.34 0.34
4 14 0.54 0.4
4 15 0.47 0.38
4 16 0.3 0.28
4 17 0.61 0.22
4 18 0.42 0.42
4 19 0.34 0.34
5 6 0.66 0.28
5 7 0.16 0.16
5 8 0.2 0.2
5 9 0.32 0.32
5 10 0.1 0.1
5 11 0.63 0.26
5 12 0.45 0.29
5 13 0.74 0.3
5 14 0.56 0.22
5 15 0.28 0.28
5 16 0.8 0.1
5 17 0.12 0.12
5 18 0.32 0.32
5 19 0.26 0.26
6 7 0.44 0.44
6 8 0.32 0.15
6 9 0.39 0.39
6 10 0.7 0.38
6 11 0.37 0.37
6 12 0.52 0.38
6 13 0.38 0.29
6 14 0.69 0.5
6 15 0.5 0.28
6 16 0.7 0.38
6 17 0.72 0.39
6 18 0.59 0.32
6 19 0.27 0.27
7 8 0.5 0.33
7 9 0.16 0.16
7 10 0.74 0.26
7 11 0.4 0.4
7 12 0.36 0.36
7 13 0.19 0.19
7 14 0.38 0.38
7 15 0.37 0.37
7 16 0.26 0.26
7 17 0.28 0.28
7 18 0.4 0.22
7 19 0.4 0.4
8 9 0.7 0.24
8 10 0.3 0.3
8 11 0.68 0.22
8 12 0.25 0.25
8 13 0.14 0.14
8 14 0.4 0.4
8 15 0.18 0.16
8 16 0.65 0.3
8 17 0.24 0.24
8 18 0.29 0.29
8 19 0.74 0.22
9 10 0.42 0.42
9 11 0.24 0.24
9 12 0.24 0.24
9 13 0.52 0.35
9 14 0.46 0.46
9 15 0.52 0.32
9 16 0.7 0.42
9 17 0.41 0.41
9 18 0.44 0.38
9 19 0.48 0.24
10 11 0.36 0.36
10 12 0.74 0.38
10 13 0.68 0.4
10 14 0.46 0.28
10 15 0.37 0.37
10 16 0.16 0.16
10 17 0.7 0.22
10 18 0.33 0.33
10 19 0.23 0.23
11 12 0.19 0.19
11 13 0.28 0.28
11 14 0.64 0.42
11 15 0.28 0.28
11 16 0.3 0.3
11 17 0.24 0.24
11 18 0.44 0.44
11 19 0.43 0.16
12 13 0.54 0.36
12 14 0.39 0.39
12 15 0.88 0.24
12 16 0.39 0.39
12 17 0.18 0.18
12 18 0.7 0.38
12 19 0.78 0.19
13 14 0.61 0.26
13 15 0.18 0.18
13 16 0.66 0.38
13 17 0.44 0.18
13 18 0.38 0.38
13 19 0.58 0.35
14 15 0.59 0.44
14 16 0.12 0.12
14 17 0.81 0.34
14 18 0.63 0.5
14 19 0.64 0.4
15 16 0.76 0.38
15 17 0.16 0.16
15 18 0.36 0.36
15 19 0.25 0.25
16 17 0.62 0.22
16 18 0.39 0.38
16 19 0.28 0.28
17 18 0.2 0.2
17 19 0.46 0.17
18 19 0.74 0.37
